Argumentos: 
./solver.release -i 16 -t 86400 -a 7 -h 86400 -w Testes/R1-i16 -m R1_modeloCom2345.mod -o R1_modeloCom2345.mod 
Seed: 1622927738
hidden-TXT/Sc-n070w4.txt
hidden-TXT/H0-n070w4-1.txt
hidden-TXT/WD-n070w4-1.txt hidden-TXT/WD-n070w4-3.txt hidden-TXT/WD-n070w4-8.txt hidden-TXT/WD-n070w4-8.txt 
Reading model section from R1_modeloCom2345.mod...
367 lines were read
Reading data section from Testes/R1-i16/16.dat...
13093 lines were read
Generating obj...
Generating H1turnoDia...
Generating H2coberturaMinima...
Generating H3AsucessaoTurnos...
Generating H3BsucessaoTurnos...
Generating H4qualificacao...
Generating S1coberturaOtima...
Generating auxS5...
Generating S6a...
Generating S6b...
Generating auxS7...
Generating S7...
Model has been successfully generated
Writing problem data to `Testes/R1-i16/16.lp'...
243870 lines were written
CPX0000  Tried aggregator 2 times.
CPX0000  MIP Presolve eliminated 14113 rows and 58120 columns.
CPX0000  MIP Presolve modified 3777 coefficients.
CPX0000  Aggregator did 1 substitutions.
CPX0000  Reduced MIP has 6825 rows, 14778 columns, and 85395 nonzeros.
CPX0000  Reduced MIP has 14351 binaries, 427 generals, 0 SOSs, and 0 indicators.
CPX0000  Presolve time = 0.17 sec. (108.99 ticks)
CPX0000  Found incumbent of value 261650.000000 after 0.36 sec. (229.03 ticks)
[1m[30m[ZEN] [0m00:00:00 [1m[34m 261650.00[1m[32m  100.00%
[0mCPX0000  Probing time = 0.01 sec. (5.50 ticks)
CPX0000  Tried aggregator 1 time.
CPX0000  Reduced MIP has 6825 rows, 14778 columns, and 85395 nonzeros.
CPX0000  Reduced MIP has 14351 binaries, 427 generals, 0 SOSs, and 0 indicators.
CPX0000  Presolve time = 0.04 sec. (33.81 ticks)
CPX0000  Probing time = 0.01 sec. (5.12 ticks)
CPX0000  Clique table members: 9957.
CPX0000  MIP emphasis: balance optimality and feasibility.
CPX0000  MIP search method: dynamic search.
CPX0000  Parallel mode: none, using 1 thread.
CPX0000  Root relaxation solution time = 0.74 sec. (523.58 ticks)
CPX0000
CPX0000          Nodes                                         Cuts/
CPX0000     Node  Left     Objective  IInf  Best Integer    Best Bound    ItCnt     Gap
CPX0000
CPX0000  *     0+    0                       261650.0000        0.0000     5123  100.00%
CPX0000        0     0      210.0000   638   261650.0000      210.0000     5123   99.92%
CPX0000        0     0      210.0000    85   261650.0000      Cuts: 38     5436   99.92%
CPX0000        0     0      210.0000   115   261650.0000     Cuts: 172     5886   99.92%
CPX0000        0     0      210.0000    23   261650.0000      Cuts: 11     5918   99.92%
CPX0000  *     0+    0                          600.0000      210.0000     5918   65.00%
[1m[30m[ZEN] [0m00:00:04 [1m[34m    600.00[1m[32m   65.00%
[0mCPX0000        0     0      210.0000    74      600.0000      Cuts: 87     6277   65.00%
CPX0000  *     0+    0                          500.0000      210.0000     6277   58.00%
CPX0000  *     0+    0                          490.0000      210.0000     6277   57.14%
CPX0000  *     0+    0                          470.0000      210.0000     6277   55.32%
CPX0000  *     0+    0                          420.0000      210.0000     6277   50.00%
[1m[30m[ZEN] [0m00:00:05 [1m[34m    420.00[1m[32m   50.00%
[0mCPX0000        0     2      210.0000    20      420.0000      210.0000     6277   50.00%
CPX0000  Elapsed time = 6.00 sec. (4447.18 ticks, tree = 0.00 MB
CPX0000       28    30      220.0000    23      420.0000      210.0000     7617   50.00%
CPX0000       50    52      280.0000    18      420.0000      210.0000     8325   50.00%
CPX0000       75    77      280.0000    22      420.0000      210.0000     9723   50.00%
CPX0000      109   111      300.0000    51      420.0000      210.0000    10723   50.00%
CPX0000      141   143      300.0000    75      420.0000      210.0000    12528   50.00%
CPX0000      160   162      300.0000    75      420.0000      210.0000    14451   50.00%
CPX0000      177   179      310.0000    10      420.0000      210.0000    16128   50.00%
CPX0000      200   202      310.0000   101      420.0000      210.0000    18032   50.00%
CPX0000      210   212      320.0000    10      420.0000      210.0000    20142   50.00%
CPX0000      273   275      380.0000    54      420.0000      210.0000    28976   50.00%
CPX0000  Elapsed time = 10.19 sec. (7677.29 ticks, tree = 7.64 MB
CPX0000  *   288   284      integral     0      410.0000      210.0000    30364   48.78%
[1m[30m[ZEN] [0m00:00:10 [1m[34m    410.00[1m[32m   48.78%
[0mCPX0000  *   388+  189                          300.0000      210.0000    33480   30.00%
[1m[30m[ZEN] [0m00:00:11 [1m[34m    300.00[1m[32m   30.00%
[0mCPX0000      412   215      270.0000   102      300.0000      210.0000    34245   30.00%
CPX0000      482   285      270.0000    15      300.0000      210.0000    40488   30.00%
CPX0000  *   512+  124                          270.0000      210.0000    42943   22.22%
[1m[30m[ZEN] [0m00:00:13 [1m[34m    270.00[1m[32m   22.22%
[0mCPX0000      551   155      210.0000    57      270.0000      210.0000    45904   22.22%
CPX0000      684   278      210.0000   255      270.0000      210.0000    51079   22.22%
CPX0000      880   456      210.0000   126      270.0000      210.0000    55719   22.22%
CPX0000  *  1027     0      integral     0      270.0000                  70315    0.00%
CPX0000
CPX0000  GUB cover cuts applied:  176
CPX0000  Clique cuts applied:  521
CPX0000  Cover cuts applied:  168
CPX0000  Mixed integer rounding cuts applied:  89
CPX0000  Zero-half cuts applied:  154
CPX0000  Gomory fractional cuts applied:  47
CPX0000
CPX0000  Root node processing (before b&c):
CPX0000    Real time             =    5.98 sec. (4423.33 ticks)
CPX0000  Sequential b&c:
CPX0000    Real time             =   16.70 sec. (12502.57 ticks)
CPX0000                            ------------
CPX0000  Total (root+branch&cut) =   22.68 sec. (16925.90 ticks)
H2 understaffing: 0
H3 shiftTypeSuccessions: 0
S1 optimalCoverage: 60
S2a consecutiveShift: 12270 = (808,10 )
S2b consecutiveWorkingDays: 20550 = ( 547,138 )
S3 consecutiveDaysOff: 14550 = ( 479,6 )
S4 preferences: 10
S5 completeWeekend: 0
S6 totalAssignments: 200
S7 totalWorkingWeekeends: 0
 

Cost Solution: 47640

      |M|T|W|T|F|S|S| |M|T|W|T|F|S|S| |M|T|W|T|F|S|S| |M|T|W|T|F|S|S|
-----------------------------------------------------------------------
HN_0  |L|-|-|-|L|-|-| |-|-|E|E|-|-|-| |N|-|L|L|-|-|-| |N|-|N|N|-|-|N|
HN_1  |D|N|-|-|L|-|-| |L|N|N|-|L|-|-| |-|D|D|-|-|E|L| |-|E|D|E|D|-|-|
HN_2  |L|-|-|-|-|E|E| |E|D|-|-|E|D|D| |D|-|E|E|D|-|-| |-|D|N|-|E|-|-|
HN_3  |-|D|-|L|-|-|-| |-|E|L|-|D|-|-| |E|E|-|N|N|-|E| |-|-|-|E|L|-|-|
HN_4  |-|E|D|-|D|D|L| |-|D|L|-|E|L|L| |-|E|N|N|-|-|-| |-|-|-|D|N|-|-|
HN_5  |-|L|-|E|D|-|-| |-|-|-|L|N|-|-| |-|D|L|L|-|L|N| |-|-|-|D|-|-|-|
HN_6  |-|D|-|E|E|-|-| |N|-|-|-|E|E|N| |N|-|L|-|L|-|-| |N|-|L|N|-|L|L|
HN_7  |E|N|N|-|-|E|D| |L|N|-|-|-|-|-| |-|-|-|D|N|-|-| |D|D|E|E|-|E|E|
NU_8  |N|N|N|-|D|-|-| |N|-|E|L|-|N|N| |N|-|-|D|E|-|-| |-|N|-|L|N|-|-|
NU_9  |-|D|E|-|E|-|-| |N|N|N|-|-|L|N| |N|N|-|-|L|-|-| |N|-|L|L|L|-|-|
NU_10 |E|N|N|N|-|D|D| |-|D|L|-|L|-|-| |N|-|E|D|-|-|-| |D|-|-|D|E|-|-|
NU_11 |D|D|E|E|D|E|E| |D|E|E|E|D|-|-| |L|L|L|-|E|-|-| |D|L|L|-|E|N|N|
NU_12 |N|-|N|-|-|-|-| |-|E|D|-|-|-|-| |D|D|D|D|D|N|N| |-|-|D|E|-|E|D|
NU_13 |-|-|L|-|-|-|-| |D|-|N|N|N|-|-| |L|N|-|L|-|-|D| |N|-|-|E|E|-|-|
NU_14 |D|E|-|D|E|-|-| |L|N|-|E|-|-|-| |N|-|E|E|-|D|N| |N|-|N|N|-|-|-|
NU_15 |E|-|-|D|-|-|-| |-|L|N|-|E|E|E| |-|L|-|-|N|N|N| |N|-|E|L|L|-|-|
NU_16 |L|-|D|D|D|N|N| |N|-|-|-|D|-|-| |L|-|-|D|D|-|-| |E|D|E|-|D|-|-|
NU_17 |N|-|E|L|-|-|E| |L|N|-|-|-|-|-| |-|E|E|-|D|-|-| |-|L|-|-|N|-|-|
NU_18 |N|N|-|E|D|N|N| |-|-|-|L|L|-|-| |-|N|-|L|N|-|-| |D|-|E|E|D|-|-|
NU_19 |L|N|-|D|D|N|N| |N|N|-|D|-|-|-| |E|L|-|-|-|L|L| |L|N|N|-|N|-|-|
NU_20 |L|L|L|L|-|-|-| |D|E|E|D|E|D|D| |D|D|D|E|E|E|D| |E|E|D|L|L|-|-|
NU_21 |L|-|N|N|-|-|-| |-|-|N|-|E|-|-| |L|L|-|-|L|-|-| |-|E|L|-|-|-|L|
NU_22 |D|L|L|N|N|-|-| |E|L|L|L|L|-|-| |E|N|-|D|D|N|N| |N|-|D|D|D|N|N|
NU_23 |D|N|-|L|-|L|L| |-|E|D|D|E|-|-| |-|-|D|N|-|-|-| |L|L|L|-|D|-|-|
NU_24 |-|-|L|-|L|-|E| |-|L|-|L|L|-|-| |-|-|E|-|D|-|-| |-|D|-|D|D|-|-|
NU_25 |D|D|E|E|N|-|-| |D|D|E|D|D|D|E| |E|E|E|E|L|-|-| |D|D|D|D|D|-|-|
NU_26 |-|D|L|L|L|-|-| |E|E|E|E|D|-|-| |L|-|D|D|D|D|E| |D|E|D|E|D|N|N|
NU_27 |L|L|L|L|N|-|-| |E|D|E|D|-|E|D| |E|L|N|N|N|-|-| |L|N|-|D|D|L|N|
NU_28 |N|-|E|N|N|-|-| |D|L|-|N|N|-|-| |D|-|-|L|-|-|-| |D|D|-|N|-|D|E|
NU_29 |D|E|L|N|-|-|-| |N|-|D|L|-|-|-| |-|E|L|N|N|-|-| |L|L|-|D|D|-|-|
NU_30 |E|L|L|-|N|-|-| |E|D|N|N|-|-|-| |L|N|-|L|-|-|-| |E|-|N|-|-|E|D|
NU_31 |-|E|L|L|N|-|-| |E|D|D|E|D|N|N| |-|D|E|E|E|-|-| |L|L|L|N|N|N|N|
NU_32 |-|D|N|-|E|-|-| |L|-|-|-|E|-|-| |D|D|-|L|-|-|-| |N|N|-|N|-|-|-|
NU_33 |N|-|D|E|E|-|-| |D|E|L|N|N|-|-| |D|D|N|N|-|D|D| |D|E|D|D|D|D|L|
NU_34 |L|L|-|-|D|-|-| |L|N|-|D|N|-|-| |N|N|N|-|-|-|-| |E|-|N|-|L|-|-|
NU_35 |L|-|-|D|D|-|-| |L|-|-|D|L|-|-| |-|E|N|-|D|D|D| |L|-|-|L|-|L|L|
NU_36 |-|L|-|-|D|-|-| |-|E|D|N|-|-|-| |E|-|-|-|D|-|-| |N|N|-|N|-|-|E|
NU_37 |N|-|-|E|L|-|-| |-|L|-|E|L|L|L| |-|E|N|N|-|-|-| |-|D|D|L|L|-|-|
NU_38 |-|E|E|-|D|-|-| |-|-|L|N|-|-|-| |L|L|-|-|-|-|-| |-|D|L|N|N|-|-|
NU_39 |-|D|D|D|E|-|-| |L|L|L|-|D|-|-| |N|-|D|E|D|-|-| |-|-|D|L|N|-|-|
CT_40 |-|D|-|-|L|-|-| |D|L|L|L|-|-|-| |L|-|L|-|E|-|-| |E|E|E|L|-|D|E|
CT_41 |E|-|-|-|L|N|-| |E|D|-|L|-|-|-| |-|-|D|N|-|-|-| |E|E|L|-|-|-|-|
CT_42 |D|D|D|E|L|-|-| |E|D|N|-|D|-|-| |D|D|E|E|D|D|E| |E|D|L|N|-|L|L|
CT_43 |N|-|-|L|L|-|D| |E|N|-|D|-|-|-| |N|N|-|-|L|-|-| |-|E|E|-|N|-|-|
CT_44 |D|D|L|N|-|D|L| |L|L|L|L|N|-|-| |L|N|N|N|N|N|N| |N|N|N|-|N|-|-|
CT_45 |E|E|D|D|E|L|L| |L|L|L|L|L|-|-| |E|E|-|D|D|E|E| |E|L|-|N|N|-|-|
CT_46 |N|-|N|N|-|E|D| |E|E|D|E|L|L|L| |L|L|L|L|N|-|-| |E|D|D|L|L|-|-|
CT_47 |D|L|N|-|N|-|-| |N|N|-|E|D|-|-| |-|L|-|E|L|-|-| |L|-|E|L|N|-|-|
CT_48 |E|E|N|-|E|E|D| |-|L|-|N|N|N|N| |-|E|-|D|-|-|-| |-|N|-|-|E|-|-|
CT_49 |D|E|D|E|D|D|L| |L|N|N|-|E|D|E| |E|D|E|D|E|-|-| |E|E|-|E|L|-|-|
CT_50 |-|N|-|-|-|-|-| |-|E|-|E|-|-|-| |D|-|L|N|N|-|L| |L|-|-|E|E|-|-|
CT_51 |-|-|N|-|E|-|D| |N|N|N|N|-|-|-| |-|-|D|L|L|-|-| |-|-|L|-|-|-|-|
CT_52 |N|-|D|L|L|-|-| |L|N|-|D|N|-|-| |N|-|D|L|L|-|-| |L|-|E|D|D|-|-|
CT_53 |L|L|-|L|L|-|-| |D|D|D|D|D|E|D| |D|D|L|L|L|L|L| |L|N|N|N|-|-|-|
CT_54 |E|E|E|L|-|E|E| |D|E|D|E|L|-|-| |E|E|N|N|N|-|-| |L|L|N|N|-|D|E|
CT_55 |L|N|N|N|N|-|-| |E|E|E|E|E|-|-| |E|D|E|E|N|-|-| |D|E|E|E|E|D|D|
CT_56 |E|D|D|E|E|-|-| |E|D|D|D|E|D|D| |D|E|N|-|E|E|E| |D|D|E|-|E|-|-|
CT_57 |D|E|E|D|N|-|-| |N|-|L|L|-|-|-| |E|-|D|E|E|-|-| |-|L|-|-|-|E|D|
CT_58 |D|D|E|E|-|-|-| |N|-|E|E|N|-|-| |L|-|L|N|-|-|-| |E|D|-|L|L|-|-|
CT_59 |E|-|E|N|-|-|-| |N|-|-|-|D|D|L| |-|D|L|L|-|L|L| |-|E|L|L|-|-|-|
TR_60 |E|L|L|-|E|-|-| |D|E|E|D|D|-|-| |E|L|N|-|D|D|E| |E|D|L|-|E|D|E|
TR_61 |-|D|D|L|L|-|-| |-|-|-|-|-|D|L| |L|-|-|D|E|-|-| |-|-|L|N|-|-|-|
TR_62 |L|N|N|-|N|-|-| |E|D|D|L|-|D|D| |D|D|L|L|-|D|L| |L|L|L|L|N|-|-|
TR_63 |D|E|-|N|-|L|-| |-|-|N|-|L|-|-| |-|-|-|-|N|-|-| |N|N|-|L|L|-|-|
TR_64 |-|-|-|L|-|D|L| |N|N|N|-|E|L|L| |-|E|L|-|-|-|-| |E|-|N|N|-|-|-|
TR_65 |E|E|E|E|E|-|-| |E|L|L|N|N|-|-| |L|N|-|D|E|L|L| |-|D|D|D|E|E|L|
TR_66 |N|-|-|D|D|-|-| |-|-|D|-|-|-|-| |-|D|E|L|L|-|-| |-|E|-|N|-|L|-|
TR_67 |-|-|-|N|-|-|-| |-|L|L|L|L|-|-| |N|-|L|N|-|E|-| |L|-|-|-|D|-|-|
TR_68 |D|L|-|D|D|-|-| |L|L|-|-|-|E|D| |E|L|-|N|-|-|-| |-|L|-|-|-|D|L|
TR_69 |E|E|D|E|D|E|L| |-|E|E|-|D|N|N| |-|E|D|N|N|-|-| |D|E|E|D|N|-|-|


Hard constraint violations
--------------------------

Minimal coverage constraints: 0
Required skill constraints: 0
Illegal shift type succession constraints: 0
Single assignment per day: 0


Cost per constraint type
------------------------

Total assignment constraints: 200
Consecutive constraints: 32820
Non working days constraints: 14550
Preferences: 10
Max working weekend: 0
Complete weekends: 0
Optimal coverage constraints: 60

------------------------

Total cost: 47640
